p cnf 965 2478
51 -698 -1 0
-51 698 0
-51 1 0
52 -51 -3 0
-52 51 0
-52 3 0
53 -5 -699 0
-53 5 0
-53 699 0
54 -53 -700 0
-54 53 0
-54 700 0
55 -701 -702 0
-55 701 0
-55 702 0
56 -703 -704 0
-56 703 0
-56 704 0
57 -56 -705 0
-57 56 0
-57 705 0
58 -706 -55 0
-58 706 0
-58 55 0
59 -707 -9 0
-59 707 0
-59 9 0
60 -59 -708 0
-60 59 0
-60 708 0
61 -709 -58 0
-61 709 0
-61 58 0
62 -710 -12 0
-62 710 0
-62 12 0
63 -62 -14 0
-63 62 0
-63 14 0
64 -711 -61 0
-64 711 0
-64 61 0
65 -712 -713 0
-65 712 0
-65 713 0
66 -65 -17 0
-66 65 0
-66 17 0
67 -714 -64 0
-67 714 0
-67 64 0
68 -715 -716 0
-68 715 0
-68 716 0
69 -68 -717 0
-69 68 0
-69 717 0
70 -718 -67 0
-70 718 0
-70 67 0
71 -719 -720 0
-71 719 0
-71 720 0
72 -71 -20 0
-72 71 0
-72 20 0
73 -721 -70 0
-73 721 0
-73 70 0
74 -719 -12 0
-74 719 0
-74 12 0
75 -74 -708 0
-75 74 0
-75 708 0
76 -722 -73 0
-76 722 0
-76 73 0
77 -723 -698 0
-77 723 0
-77 698 0
78 -77 -700 0
-78 77 0
-78 700 0
79 -724 -76 0
-79 724 0
-79 76 0
80 -8 -7 0
-80 8 0
-80 7 0
81 -80 -725 0
-81 80 0
-81 725 0
82 -726 -79 0
-82 726 0
-82 79 0
83 -24 -15 0
-83 24 0
-83 15 0
84 -83 -712 0
-84 83 0
-84 712 0
85 -727 -82 0
-85 727 0
-85 82 0
86 -728 -9 0
-86 728 0
-86 9 0
87 -86 -26 0
-87 86 0
-87 26 0
88 -729 -85 0
-88 729 0
-88 85 0
89 -27 -707 0
-89 27 0
-89 707 0
90 -89 -13 0
-90 89 0
-90 13 0
91 -730 -88 0
-91 730 0
-91 88 0
92 -27 -19 0
-92 27 0
-92 19 0
93 -92 -20 0
-93 92 0
-93 20 0
94 -731 -91 0
-94 731 0
-94 91 0
95 -28 -732 0
-95 28 0
-95 732 0
96 -95 -29 0
-96 95 0
-96 29 0
97 -733 -94 0
-97 733 0
-97 94 0
98 -734 -735 0
-98 734 0
-98 735 0
99 -98 -736 0
-99 98 0
-99 736 0
100 -737 -97 0
-100 737 0
-100 97 0
101 -32 -716 0
-101 32 0
-101 716 0
102 -101 -2 0
-102 101 0
-102 2 0
103 -738 -100 0
-103 738 0
-103 100 0
104 -33 -715 0
-104 33 0
-104 715 0
105 -104 -739 0
-105 104 0
-105 739 0
106 -740 -103 0
-106 740 0
-106 103 0
107 -741 -21 0
-107 741 0
-107 21 0
108 -107 -703 0
-108 107 0
-108 703 0
109 -742 -106 0
-109 742 0
-109 106 0
110 -18 -4 0
-110 18 0
-110 4 0
111 -110 -3 0
-111 110 0
-111 3 0
112 -743 -109 0
-112 743 0
-112 109 0
113 -744 -720 0
-113 744 0
-113 720 0
114 -113 -745 0
-114 113 0
-114 745 0
115 -746 -112 0
-115 746 0
-115 112 0
116 -36 -6 0
-116 36 0
-116 6 0
117 -116 -37 0
-117 116 0
-117 37 0
118 -747 -115 0
-118 747 0
-118 115 0
119 -748 -720 0
-119 748 0
-119 720 0
120 -119 -11 0
-120 119 0
-120 11 0
121 -749 -118 0
-121 749 0
-121 118 0
122 -39 -704 0
-122 39 0
-122 704 0
123 -122 -7 0
-123 122 0
-123 7 0
124 -750 -121 0
-124 750 0
-124 121 0
125 -104 -29 0
-125 104 0
-125 29 0
126 -751 -124 0
-126 751 0
-126 124 0
127 -752 -18 0
-127 752 0
-127 18 0
128 -127 -15 0
-128 127 0
-128 15 0
129 -753 -126 0
-129 753 0
-129 126 0
130 -35 -4 0
-130 35 0
-130 4 0
131 -130 -754 0
-131 130 0
-131 754 0
132 -755 -129 0
-132 755 0
-132 129 0
133 -717 -708 0
-133 717 0
-133 708 0
134 -133 -42 0
-134 133 0
-134 42 0
135 -756 -132 0
-135 756 0
-135 132 0
136 -757 -23 0
-136 757 0
-136 23 0
137 -136 -758 0
-137 136 0
-137 758 0
138 -759 -135 0
-138 759 0
-138 135 0
139 -39 -24 0
-139 39 0
-139 24 0
140 -139 -723 0
-140 139 0
-140 723 0
141 -760 -138 0
-141 760 0
-141 138 0
142 -761 -25 0
-142 761 0
-142 25 0
143 -142 -42 0
-143 142 0
-143 42 0
144 -762 -141 0
-144 762 0
-144 141 0
145 -763 -754 0
-145 763 0
-145 754 0
146 -145 -713 0
-146 145 0
-146 713 0
147 -764 -144 0
-147 764 0
-147 144 0
148 -716 -725 0
-148 716 0
-148 725 0
149 -148 -26 0
-149 148 0
-149 26 0
150 -765 -147 0
-150 765 0
-150 147 0
151 -719 -21 0
-151 719 0
-151 21 0
152 -151 -766 0
-152 151 0
-152 766 0
153 -767 -150 0
-153 767 0
-153 150 0
154 -748 -768 0
-154 748 0
-154 768 0
155 -154 -700 0
-155 154 0
-155 700 0
156 -769 -153 0
-156 769 0
-156 153 0
157 -770 -11 0
-157 770 0
-157 11 0
158 -157 -14 0
-158 157 0
-158 14 0
159 -771 -156 0
-159 771 0
-159 156 0
160 -761 -31 0
-160 761 0
-160 31 0
161 -160 -772 0
-161 160 0
-161 772 0
162 -773 -159 0
-162 773 0
-162 159 0
163 -723 -703 0
-163 723 0
-163 703 0
164 -163 -772 0
-164 163 0
-164 772 0
165 -774 -162 0
-165 774 0
-165 162 0
166 -775 -28 0
-166 775 0
-166 28 0
167 -166 -776 0
-167 166 0
-167 776 0
168 -777 -165 0
-168 777 0
-168 165 0
169 -748 -704 0
-169 748 0
-169 704 0
170 -169 -772 0
-170 169 0
-170 772 0
171 -778 -168 0
-171 778 0
-171 168 0
172 -763 -40 0
-172 763 0
-172 40 0
173 -172 -779 0
-173 172 0
-173 779 0
174 -780 -171 0
-174 780 0
-174 171 0
175 -27 -723 0
-175 27 0
-175 723 0
176 -175 -16 0
-176 175 0
-176 16 0
177 -781 -174 0
-177 781 0
-177 174 0
178 -35 -11 0
-178 35 0
-178 11 0
179 -178 -23 0
-179 178 0
-179 23 0
180 -782 -177 0
-180 782 0
-180 177 0
181 -47 -725 0
-181 47 0
-181 725 0
182 -181 -772 0
-182 181 0
-182 772 0
183 -783 -180 0
-183 783 0
-183 180 0
184 -748 -5 0
-184 748 0
-184 5 0
185 -184 -11 0
-185 184 0
-185 11 0
186 -784 -183 0
-186 784 0
-186 183 0
187 -763 -699 0
-187 763 0
-187 699 0
188 -187 -26 0
-188 187 0
-188 26 0
189 -785 -186 0
-189 785 0
-189 186 0
190 -748 -20 0
-190 748 0
-190 20 0
191 -190 -17 0
-191 190 0
-191 17 0
192 -786 -189 0
-192 786 0
-192 189 0
193 -18 -712 0
-193 18 0
-193 712 0
194 -193 -772 0
-194 193 0
-194 772 0
195 -787 -192 0
-195 787 0
-195 192 0
196 -27 -15 0
-196 27 0
-196 15 0
197 -196 -725 0
-197 196 0
-197 725 0
198 -788 -195 0
-198 788 0
-198 195 0
199 -789 -30 0
-199 789 0
-199 30 0
200 -199 -17 0
-200 199 0
-200 17 0
201 -790 -198 0
-201 790 0
-201 198 0
202 -20 -791 0
-202 20 0
-202 791 0
203 -202 -761 0
-203 202 0
-203 761 0
204 -792 -201 0
-204 792 0
-204 201 0
205 -5 -4 0
-205 5 0
-205 4 0
206 -205 -717 0
-206 205 0
-206 717 0
207 -793 -204 0
-207 793 0
-207 204 0
208 -12 -698 0
-208 12 0
-208 698 0
209 -208 -14 0
-209 208 0
-209 14 0
210 -794 -207 0
-210 794 0
-210 207 0
211 -47 -715 0
-211 47 0
-211 715 0
212 -211 -12 0
-212 211 0
-212 12 0
213 -795 -210 0
-213 795 0
-213 210 0
214 -763 -10 0
-214 763 0
-214 10 0
215 -214 -26 0
-215 214 0
-215 26 0
216 -796 -213 0
-216 796 0
-216 213 0
217 -37 -728 0
-217 37 0
-217 728 0
218 -217 -34 0
-218 217 0
-218 34 0
219 -797 -216 0
-219 797 0
-219 216 0
220 -768 -10 0
-220 768 0
-220 10 0
221 -220 -798 0
-221 220 0
-221 798 0
222 -799 -219 0
-222 799 0
-222 219 0
223 -723 -15 0
-223 723 0
-223 15 0
224 -223 -44 0
-224 223 0
-224 44 0
225 -800 -222 0
-225 800 0
-225 222 0
226 -38 -736 0
-226 38 0
-226 736 0
227 -226 -772 0
-227 226 0
-227 772 0
228 -801 -225 0
-228 801 0
-228 225 0
229 -719 -4 0
-229 719 0
-229 4 0
230 -229 -19 0
-230 229 0
-230 19 0
231 -802 -228 0
-231 802 0
-231 228 0
232 -17 -8 0
-232 17 0
-232 8 0
233 -232 -766 0
-233 232 0
-233 766 0
234 -803 -231 0
-234 803 0
-234 231 0
235 -710 -703 0
-235 710 0
-235 703 0
236 -235 -739 0
-236 235 0
-236 739 0
237 -804 -234 0
-237 804 0
-237 234 0
238 -29 -732 0
-238 29 0
-238 732 0
239 -238 -705 0
-239 238 0
-239 705 0
240 -805 -237 0
-240 805 0
-240 237 0
241 -744 -12 0
-241 744 0
-241 12 0
242 -241 -723 0
-242 241 0
-242 723 0
243 -806 -240 0
-243 806 0
-243 240 0
244 -752 -707 0
-244 752 0
-244 707 0
245 -244 -757 0
-245 244 0
-245 757 0
246 -807 -243 0
-246 807 0
-246 243 0
247 -41 -40 0
-247 41 0
-247 40 0
248 -247 -37 0
-248 247 0
-248 37 0
249 -808 -246 0
-249 808 0
-249 246 0
250 -41 -720 0
-250 41 0
-250 720 0
251 -250 -757 0
-251 250 0
-251 757 0
252 -809 -249 0
-252 809 0
-252 249 0
253 -38 -735 0
-253 38 0
-253 735 0
254 -253 -708 0
-254 253 0
-254 708 0
255 -810 -252 0
-255 810 0
-255 252 0
256 -719 -10 0
-256 719 0
-256 10 0
257 -256 -20 0
-257 256 0
-257 20 0
258 -811 -255 0
-258 811 0
-258 255 0
259 -27 -715 0
-259 27 0
-259 715 0
260 -259 -757 0
-260 259 0
-260 757 0
261 -812 -258 0
-261 812 0
-261 258 0
262 -789 -713 0
-262 789 0
-262 713 0
263 -262 -48 0
-263 262 0
-263 48 0
264 -813 -261 0
-264 813 0
-264 261 0
265 -770 -719 0
-265 770 0
-265 719 0
266 -265 -29 0
-266 265 0
-266 29 0
267 -814 -264 0
-267 814 0
-267 264 0
268 -713 -12 0
-268 713 0
-268 12 0
269 -268 -761 0
-269 268 0
-269 761 0
270 -815 -267 0
-270 815 0
-270 267 0
271 -816 -741 0
-271 816 0
-271 741 0
272 -271 -772 0
-272 271 0
-272 772 0
273 -817 -270 0
-273 817 0
-273 270 0
274 -49 -791 0
-274 49 0
-274 791 0
275 -274 -34 0
-275 274 0
-275 34 0
276 -818 -273 0
-276 818 0
-276 273 0
277 -798 -707 0
-277 798 0
-277 707 0
278 -277 -745 0
-278 277 0
-278 745 0
279 -819 -276 0
-279 819 0
-279 276 0
280 -49 -6 0
-280 49 0
-280 6 0
281 -280 -2 0
-281 280 0
-281 2 0
282 -820 -279 0
-282 820 0
-282 279 0
283 -39 -11 0
-283 39 0
-283 11 0
284 -283 -761 0
-284 283 0
-284 761 0
285 -821 -282 0
-285 821 0
-285 282 0
286 -822 -754 0
-286 822 0
-286 754 0
287 -286 -763 0
-287 286 0
-287 763 0
288 -823 -285 0
-288 823 0
-288 285 0
289 -770 -768 0
-289 770 0
-289 768 0
290 -289 -824 0
-290 289 0
-290 824 0
291 -825 -288 0
-291 825 0
-291 288 0
292 -822 -826 0
-292 822 0
-292 826 0
293 -292 -18 0
-293 292 0
-293 18 0
294 -827 -291 0
-294 827 0
-294 291 0
295 -735 -4 0
-295 735 0
-295 4 0
296 -295 -42 0
-296 295 0
-296 42 0
297 -828 -294 0
-297 828 0
-297 294 0
298 -40 -39 0
-298 40 0
-298 39 0
299 -298 -698 0
-299 298 0
-299 698 0
300 -829 -297 0
-300 829 0
-300 297 0
301 -710 -705 0
-301 710 0
-301 705 0
302 -301 -42 0
-302 301 0
-302 42 0
303 -830 -300 0
-303 830 0
-303 300 0
304 -24 -826 0
-304 24 0
-304 826 0
305 -304 -703 0
-305 304 0
-305 703 0
306 -831 -303 0
-306 831 0
-306 303 0
307 -754 -768 0
-307 754 0
-307 768 0
308 -307 -798 0
-308 307 0
-308 798 0
309 -832 -306 0
-309 832 0
-309 306 0
310 -754 -21 0
-310 754 0
-310 21 0
311 -310 -723 0
-311 310 0
-311 723 0
312 -833 -309 0
-312 833 0
-312 309 0
313 -33 -2 0
-313 33 0
-313 2 0
314 -313 -44 0
-314 313 0
-314 44 0
315 -834 -312 0
-315 834 0
-315 312 0
316 -48 -30 0
-316 48 0
-316 30 0
317 -316 -3 0
-317 316 0
-317 3 0
318 -835 -315 0
-318 835 0
-318 315 0
319 -775 -716 0
-319 775 0
-319 716 0
320 -319 -26 0
-320 319 0
-320 26 0
321 -836 -318 0
-321 836 0
-321 318 0
322 -15 -2 0
-322 15 0
-322 2 0
323 -322 -824 0
-323 322 0
-323 824 0
324 -837 -321 0
-324 837 0
-324 321 0
325 -48 -748 0
-325 48 0
-325 748 0
326 -325 -20 0
-326 325 0
-326 20 0
327 -838 -324 0
-327 838 0
-327 324 0
328 -734 -10 0
-328 734 0
-328 10 0
329 -328 -50 0
-329 328 0
-329 50 0
330 -839 -327 0
-330 839 0
-330 327 0
331 -732 -2 0
-331 732 0
-331 2 0
332 -331 -44 0
-332 331 0
-332 44 0
333 -840 -330 0
-333 840 0
-333 330 0
334 -48 -704 0
-334 48 0
-334 704 0
335 -334 -705 0
-335 334 0
-335 705 0
336 -841 -333 0
-336 841 0
-336 333 0
337 -49 -19 0
-337 49 0
-337 19 0
338 -337 -7 0
-338 337 0
-338 7 0
339 -842 -336 0
-339 842 0
-339 336 0
340 -775 -10 0
-340 775 0
-340 10 0
341 -340 -14 0
-341 340 0
-341 14 0
342 -843 -339 0
-342 843 0
-342 339 0
343 -14 -826 0
-343 14 0
-343 826 0
344 -343 -758 0
-344 343 0
-344 758 0
345 -844 -342 0
-345 844 0
-345 342 0
346 -822 -824 0
-346 822 0
-346 824 0
347 -346 -7 0
-347 346 0
-347 7 0
348 -845 -345 0
-348 845 0
-348 345 0
349 -35 -21 0
-349 35 0
-349 21 0
350 -349 -846 0
-350 349 0
-350 846 0
351 -847 -348 0
-351 847 0
-351 348 0
352 -715 -4 0
-352 715 0
-352 4 0
353 -352 -824 0
-353 352 0
-353 824 0
354 -848 -351 0
-354 848 0
-354 351 0
355 -754 -15 0
-355 754 0
-355 15 0
356 -355 -3 0
-356 355 0
-356 3 0
357 -849 -354 0
-357 849 0
-357 354 0
358 -12 -9 0
-358 12 0
-358 9 0
359 -358 -3 0
-359 358 0
-359 3 0
360 -850 -357 0
-360 850 0
-360 357 0
361 -31 -30 0
-361 31 0
-361 30 0
362 -361 -824 0
-362 361 0
-362 824 0
363 -851 -360 0
-363 851 0
-363 360 0
364 -770 -752 0
-364 770 0
-364 752 0
365 -364 -700 0
-365 364 0
-365 700 0
366 -852 -363 0
-366 852 0
-366 363 0
367 -349 -14 0
-367 349 0
-367 14 0
368 -853 -366 0
-368 853 0
-368 366 0
369 -776 -30 0
-369 776 0
-369 30 0
370 -369 -846 0
-370 369 0
-370 846 0
371 -854 -368 0
-371 854 0
-371 368 0
372 -716 -4 0
-372 716 0
-372 4 0
373 -372 -704 0
-373 372 0
-373 704 0
374 -855 -371 0
-374 855 0
-374 371 0
375 -48 -1 0
-375 48 0
-375 1 0
376 -375 -772 0
-376 375 0
-376 772 0
377 -856 -374 0
-377 856 0
-377 374 0
378 -754 -16 0
-378 754 0
-378 16 0
379 -378 -846 0
-379 378 0
-379 846 0
380 -857 -377 0
-380 857 0
-380 377 0
381 -45 -10 0
-381 45 0
-381 10 0
382 -381 -710 0
-382 381 0
-382 710 0
383 -858 -380 0
-383 858 0
-383 380 0
384 -45 -18 0
-384 45 0
-384 18 0
385 -384 -725 0
-385 384 0
-385 725 0
386 -859 -383 0
-386 859 0
-386 383 0
387 -741 -1 0
-387 741 0
-387 1 0
388 -387 -732 0
-388 387 0
-388 732 0
389 -860 -386 0
-389 860 0
-389 386 0
390 -40 -713 0
-390 40 0
-390 713 0
391 -390 -50 0
-391 390 0
-391 50 0
392 -861 -389 0
-392 861 0
-392 389 0
393 -798 -6 0
-393 798 0
-393 6 0
394 -393 -16 0
-394 393 0
-394 16 0
395 -862 -392 0
-395 862 0
-395 392 0
396 -50 -761 0
-396 50 0
-396 761 0
397 -396 -772 0
-397 396 0
-397 772 0
398 -863 -395 0
-398 863 0
-398 395 0
399 -21 -703 0
-399 21 0
-399 703 0
400 -399 -717 0
-400 399 0
-400 717 0
401 -864 -398 0
-401 864 0
-401 398 0
402 -744 -10 0
-402 744 0
-402 10 0
403 -402 -8 0
-403 402 0
-403 8 0
404 -865 -401 0
-404 865 0
-404 401 0
405 -30 -4 0
-405 30 0
-405 4 0
406 -405 -713 0
-406 405 0
-406 713 0
407 -866 -404 0
-407 866 0
-407 404 0
408 -45 -754 0
-408 45 0
-408 754 0
409 -408 -8 0
-409 408 0
-409 8 0
410 -867 -407 0
-410 867 0
-410 407 0
411 -31 -15 0
-411 31 0
-411 15 0
412 -411 -16 0
-412 411 0
-412 16 0
413 -868 -410 0
-413 868 0
-413 410 0
414 -40 -15 0
-414 40 0
-414 15 0
415 -414 -745 0
-415 414 0
-415 745 0
416 -869 -413 0
-416 869 0
-416 413 0
417 -25 -10 0
-417 25 0
-417 10 0
418 -417 -824 0
-418 417 0
-418 824 0
419 -870 -416 0
-419 870 0
-419 416 0
420 -22 -13 0
-420 22 0
-420 13 0
421 -420 -29 0
-421 420 0
-421 29 0
422 -871 -419 0
-422 871 0
-422 419 0
423 -713 -8 0
-423 713 0
-423 8 0
424 -423 -717 0
-424 423 0
-424 717 0
425 -872 -422 0
-425 872 0
-425 422 0
426 -741 -2 0
-426 741 0
-426 2 0
427 -426 -37 0
-427 426 0
-427 37 0
428 -873 -425 0
-428 873 0
-428 425 0
429 -713 -4 0
-429 713 0
-429 4 0
430 -429 -44 0
-430 429 0
-430 44 0
431 -874 -428 0
-431 874 0
-431 428 0
432 -32 -741 0
-432 32 0
-432 741 0
433 -432 -846 0
-433 432 0
-433 846 0
434 -875 -431 0
-434 875 0
-434 431 0
435 -776 -717 0
-435 776 0
-435 717 0
436 -435 -758 0
-436 435 0
-436 758 0
437 -876 -434 0
-437 876 0
-437 434 0
438 -44 -40 0
-438 44 0
-438 40 0
439 -438 -50 0
-439 438 0
-439 50 0
440 -877 -437 0
-440 877 0
-440 437 0
441 -35 -25 0
-441 35 0
-441 25 0
442 -441 -698 0
-442 441 0
-442 698 0
443 -878 -440 0
-443 878 0
-443 440 0
444 -45 -22 0
-444 45 0
-444 22 0
445 -444 -779 0
-445 444 0
-445 779 0
446 -879 -443 0
-446 879 0
-446 443 0
447 -41 -719 0
-447 41 0
-447 719 0
448 -447 -761 0
-448 447 0
-448 761 0
449 -880 -446 0
-449 880 0
-449 446 0
450 -33 -720 0
-450 33 0
-450 720 0
451 -450 -32 0
-451 450 0
-451 32 0
452 -881 -449 0
-452 881 0
-452 449 0
453 -49 -720 0
-453 49 0
-453 720 0
454 -453 -13 0
-454 453 0
-454 13 0
455 -882 -452 0
-455 882 0
-455 452 0
456 -49 -761 0
-456 49 0
-456 761 0
457 -456 -50 0
-457 456 0
-457 50 0
458 -883 -455 0
-458 883 0
-458 455 0
459 -47 -29 0
-459 47 0
-459 29 0
460 -459 -739 0
-460 459 0
-460 739 0
461 -884 -458 0
-461 884 0
-461 458 0
462 -798 -5 0
-462 798 0
-462 5 0
463 -462 -761 0
-463 462 0
-463 761 0
464 -885 -461 0
-464 885 0
-464 461 0
465 -43 -36 0
-465 43 0
-465 36 0
466 -465 -712 0
-466 465 0
-466 712 0
467 -886 -464 0
-467 886 0
-467 464 0
468 -763 -741 0
-468 763 0
-468 741 0
469 -468 -7 0
-469 468 0
-469 7 0
470 -887 -467 0
-470 887 0
-470 467 0
471 -35 -5 0
-471 35 0
-471 5 0
472 -471 -761 0
-472 471 0
-472 761 0
473 -888 -470 0
-473 888 0
-473 470 0
474 -776 -3 0
-474 776 0
-474 3 0
475 -474 -846 0
-475 474 0
-475 846 0
476 -889 -473 0
-476 889 0
-476 473 0
477 -49 -45 0
-477 49 0
-477 45 0
478 -477 -8 0
-478 477 0
-478 8 0
479 -890 -476 0
-479 890 0
-479 476 0
480 -49 -775 0
-480 49 0
-480 775 0
481 -480 -715 0
-481 480 0
-481 715 0
482 -891 -479 0
-482 891 0
-482 479 0
483 -735 -5 0
-483 735 0
-483 5 0
484 -483 -745 0
-484 483 0
-484 745 0
485 -892 -482 0
-485 892 0
-485 482 0
486 -16 -14 0
-486 16 0
-486 14 0
487 -486 -17 0
-487 486 0
-487 17 0
488 -893 -485 0
-488 893 0
-488 485 0
489 -775 -6 0
-489 775 0
-489 6 0
490 -489 -2 0
-490 489 0
-490 2 0
491 -894 -488 0
-491 894 0
-491 488 0
492 -744 -21 0
-492 744 0
-492 21 0
493 -492 -22 0
-493 492 0
-493 22 0
494 -895 -491 0
-494 895 0
-494 491 0
495 -30 -19 0
-495 30 0
-495 19 0
496 -495 -50 0
-496 495 0
-496 50 0
497 -896 -494 0
-497 896 0
-497 494 0
498 -752 -12 0
-498 752 0
-498 12 0
499 -498 -34 0
-499 498 0
-499 34 0
500 -897 -497 0
-500 897 0
-500 497 0
501 -716 -704 0
-501 716 0
-501 704 0
502 -501 -705 0
-502 501 0
-502 705 0
503 -898 -500 0
-503 898 0
-503 500 0
504 -703 -5 0
-504 703 0
-504 5 0
505 -504 -46 0
-505 504 0
-505 46 0
506 -899 -503 0
-506 899 0
-506 503 0
507 -17 -707 0
-507 17 0
-507 707 0
508 -507 -50 0
-508 507 0
-508 50 0
509 -900 -506 0
-509 900 0
-509 506 0
510 -38 -707 0
-510 38 0
-510 707 0
511 -510 -734 0
-511 510 0
-511 734 0
512 -901 -509 0
-512 901 0
-512 509 0
513 -33 -708 0
-513 33 0
-513 708 0
514 -513 -14 0
-514 513 0
-514 14 0
515 -902 -512 0
-515 902 0
-515 512 0
516 -43 -703 0
-516 43 0
-516 703 0
517 -516 -798 0
-517 516 0
-517 798 0
518 -903 -515 0
-518 903 0
-518 515 0
519 -21 -1 0
-519 21 0
-519 1 0
520 -519 -776 0
-520 519 0
-520 776 0
521 -904 -518 0
-521 904 0
-521 518 0
522 -44 -816 0
-522 44 0
-522 816 0
523 -522 -17 0
-523 522 0
-523 17 0
524 -905 -521 0
-524 905 0
-524 521 0
525 -205 -29 0
-525 205 0
-525 29 0
526 -906 -524 0
-526 906 0
-526 524 0
527 -779 -18 0
-527 779 0
-527 18 0
528 -527 -1 0
-528 527 0
-528 1 0
529 -907 -526 0
-529 907 0
-529 526 0
530 -47 -19 0
-530 47 0
-530 19 0
531 -530 -29 0
-531 530 0
-531 29 0
532 -908 -529 0
-532 908 0
-532 529 0
533 -31 -9 0
-533 31 0
-533 9 0
534 -533 -14 0
-534 533 0
-534 14 0
535 -909 -532 0
-535 909 0
-535 532 0
536 -770 -35 0
-536 770 0
-536 35 0
537 -536 -698 0
-537 536 0
-537 698 0
538 -910 -535 0
-538 910 0
-538 535 0
539 -50 -34 0
-539 50 0
-539 34 0
540 -539 -26 0
-540 539 0
-540 26 0
541 -911 -538 0
-541 911 0
-541 538 0
542 -399 -705 0
-542 399 0
-542 705 0
543 -912 -541 0
-543 912 0
-543 541 0
544 -763 -33 0
-544 763 0
-544 33 0
545 -544 -768 0
-545 544 0
-545 768 0
546 -913 -543 0
-546 913 0
-546 543 0
547 -757 -31 0
-547 757 0
-547 31 0
548 -547 -717 0
-548 547 0
-548 717 0
549 -914 -546 0
-549 914 0
-549 546 0
550 -16 -699 0
-550 16 0
-550 699 0
551 -550 -50 0
-551 550 0
-551 50 0
552 -915 -549 0
-552 915 0
-552 549 0
553 -29 -704 0
-553 29 0
-553 704 0
554 -553 -34 0
-554 553 0
-554 34 0
555 -916 -552 0
-555 916 0
-555 552 0
556 -32 -707 0
-556 32 0
-556 707 0
557 -556 -736 0
-557 556 0
-557 736 0
558 -917 -555 0
-558 917 0
-558 555 0
559 -45 -752 0
-559 45 0
-559 752 0
560 -559 -23 0
-560 559 0
-560 23 0
561 -918 -558 0
-561 918 0
-561 558 0
562 -41 -7 0
-562 41 0
-562 7 0
563 -562 -50 0
-563 562 0
-563 50 0
564 -919 -561 0
-564 919 0
-564 561 0
565 -21 -3 0
-565 21 0
-565 3 0
566 -565 -766 0
-566 565 0
-566 766 0
567 -920 -564 0
-567 920 0
-567 564 0
568 -27 -713 0
-568 27 0
-568 713 0
569 -568 -8 0
-569 568 0
-569 8 0
570 -921 -567 0
-570 921 0
-570 567 0
571 -33 -707 0
-571 33 0
-571 707 0
572 -571 -703 0
-572 571 0
-572 703 0
573 -922 -570 0
-573 922 0
-573 570 0
574 -776 -32 0
-574 776 0
-574 32 0
575 -574 -20 0
-575 574 0
-575 20 0
576 -923 -573 0
-576 923 0
-576 573 0
577 -21 -716 0
-577 21 0
-577 716 0
578 -577 -29 0
-578 577 0
-578 29 0
579 -924 -576 0
-579 924 0
-579 576 0
580 -826 -703 0
-580 826 0
-580 703 0
581 -580 -11 0
-581 580 0
-581 11 0
582 -925 -579 0
-582 925 0
-582 579 0
583 -734 -13 0
-583 734 0
-583 13 0
584 -583 -3 0
-584 583 0
-584 3 0
585 -926 -582 0
-585 926 0
-585 582 0
586 -48 -927 0
-586 48 0
-586 927 0
587 -586 -700 0
-587 586 0
-587 700 0
588 -928 -585 0
-588 928 0
-588 585 0
589 -30 -927 0
-589 30 0
-589 927 0
590 -589 -824 0
-590 589 0
-590 824 0
591 -929 -588 0
-591 929 0
-591 588 0
592 -707 -2 0
-592 707 0
-592 2 0
593 -592 -705 0
-593 592 0
-593 705 0
594 -930 -591 0
-594 930 0
-594 591 0
595 -47 -21 0
-595 47 0
-595 21 0
596 -595 -23 0
-596 595 0
-596 23 0
597 -931 -594 0
-597 931 0
-597 594 0
598 -35 -826 0
-598 35 0
-598 826 0
599 -598 -698 0
-599 598 0
-599 698 0
600 -932 -597 0
-600 932 0
-600 597 0
601 -43 -700 0
-601 43 0
-601 700 0
602 -601 -50 0
-602 601 0
-602 50 0
603 -933 -600 0
-603 933 0
-603 600 0
604 -40 -9 0
-604 40 0
-604 9 0
605 -604 -927 0
-605 604 0
-605 927 0
606 -934 -603 0
-606 934 0
-606 603 0
607 -744 -33 0
-607 744 0
-607 33 0
608 -607 -717 0
-608 607 0
-608 717 0
609 -935 -606 0
-609 935 0
-609 606 0
610 -295 -8 0
-610 295 0
-610 8 0
611 -936 -609 0
-611 936 0
-611 609 0
612 -48 -38 0
-612 48 0
-612 38 0
613 -612 -732 0
-613 612 0
-613 732 0
614 -937 -611 0
-614 937 0
-614 611 0
615 -716 -713 0
-615 716 0
-615 713 0
616 -615 -791 0
-616 615 0
-616 791 0
617 -938 -614 0
-617 938 0
-617 614 0
618 -47 -720 0
-618 47 0
-618 720 0
619 -618 -39 0
-619 618 0
-619 39 0
620 -939 -617 0
-620 939 0
-620 617 0
621 -744 -707 0
-621 744 0
-621 707 0
622 -621 -43 0
-622 621 0
-622 43 0
623 -940 -620 0
-623 940 0
-623 620 0
624 -40 -4 0
-624 40 0
-624 4 0
625 -624 -14 0
-625 624 0
-625 14 0
626 -941 -623 0
-626 941 0
-626 623 0
627 -42 -24 0
-627 42 0
-627 24 0
628 -627 -26 0
-628 627 0
-628 26 0
629 -942 -626 0
-629 942 0
-629 626 0
630 -763 -43 0
-630 763 0
-630 43 0
631 -630 -745 0
-631 630 0
-631 745 0
632 -943 -629 0
-632 943 0
-632 629 0
633 -22 -736 0
-633 22 0
-633 736 0
634 -633 -8 0
-634 633 0
-634 8 0
635 -944 -632 0
-635 944 0
-635 632 0
636 -48 -719 0
-636 48 0
-636 719 0
637 -636 -766 0
-637 636 0
-637 766 0
638 -945 -635 0
-638 945 0
-638 635 0
639 -763 -719 0
-639 763 0
-639 719 0
640 -639 -710 0
-640 639 0
-640 710 0
641 -946 -638 0
-641 946 0
-641 638 0
642 -28 -715 0
-642 28 0
-642 715 0
643 -642 -698 0
-643 642 0
-643 698 0
644 -947 -641 0
-644 947 0
-644 641 0
645 -25 -4 0
-645 25 0
-645 4 0
646 -645 -23 0
-646 645 0
-646 23 0
647 -948 -644 0
-647 948 0
-647 644 0
648 -40 -768 0
-648 40 0
-648 768 0
649 -648 -761 0
-649 648 0
-649 761 0
650 -949 -647 0
-650 949 0
-650 647 0
651 -798 -30 0
-651 798 0
-651 30 0
652 -651 -712 0
-652 651 0
-652 712 0
653 -950 -650 0
-653 950 0
-653 650 0
654 -775 -32 0
-654 775 0
-654 32 0
655 -654 -16 0
-655 654 0
-655 16 0
656 -951 -653 0
-656 951 0
-656 653 0
657 -789 -19 0
-657 789 0
-657 19 0
658 -657 -725 0
-658 657 0
-658 725 0
659 -952 -656 0
-659 952 0
-659 656 0
660 -728 -708 0
-660 728 0
-660 708 0
661 -660 -44 0
-661 660 0
-661 44 0
662 -953 -659 0
-662 953 0
-662 659 0
663 -35 -707 0
-663 35 0
-663 707 0
664 -663 -7 0
-664 663 0
-664 7 0
665 -954 -662 0
-665 954 0
-665 662 0
666 -41 -716 0
-666 41 0
-666 716 0
667 -666 -723 0
-667 666 0
-667 723 0
668 -955 -665 0
-668 955 0
-668 665 0
669 -12 -703 0
-669 12 0
-669 703 0
670 -669 -17 0
-670 669 0
-670 17 0
671 -956 -668 0
-671 956 0
-671 668 0
672 -763 -816 0
-672 763 0
-672 816 0
673 -672 -705 0
-673 672 0
-673 705 0
674 -957 -671 0
-674 957 0
-674 671 0
675 -12 -732 0
-675 12 0
-675 732 0
676 -675 -766 0
-676 675 0
-676 766 0
677 -958 -674 0
-677 958 0
-677 674 0
678 -381 -42 0
-678 381 0
-678 42 0
679 -959 -677 0
-679 959 0
-679 677 0
680 -33 -728 0
-680 33 0
-680 728 0
681 -680 -717 0
-681 680 0
-681 717 0
682 -960 -679 0
-682 960 0
-682 679 0
683 -744 -816 0
-683 744 0
-683 816 0
684 -683 -761 0
-684 683 0
-684 761 0
685 -961 -682 0
-685 961 0
-685 682 0
686 -36 -779 0
-686 36 0
-686 779 0
687 -686 -700 0
-687 686 0
-687 700 0
688 -962 -685 0
-688 962 0
-688 685 0
689 -734 -736 0
-689 734 0
-689 736 0
690 -689 -745 0
-690 689 0
-690 745 0
691 -963 -688 0
-691 963 0
-691 688 0
692 -33 -927 0
-692 33 0
-692 927 0
693 -692 -19 0
-693 692 0
-693 19 0
694 -964 -691 0
-694 964 0
-694 691 0
695 -47 -734 0
-695 47 0
-695 734 0
696 -695 -713 0
-696 695 0
-696 713 0
697 -965 -694 0
-697 965 0
-697 694 0
-698 -2 0
698 2 0
-699 -4 0
699 4 0
-700 -3 0
700 3 0
-701 -54 0
701 54 0
-702 -52 0
702 52 0
-703 -7 0
703 7 0
-704 -6 0
704 6 0
-705 -8 0
705 8 0
-706 -57 0
706 57 0
-707 -10 0
707 10 0
-708 -11 0
708 11 0
-709 -60 0
709 60 0
-710 -13 0
710 13 0
-711 -63 0
711 63 0
-712 -16 0
712 16 0
-713 -15 0
713 15 0
-714 -66 0
714 66 0
-715 -19 0
715 19 0
-716 -18 0
716 18 0
-717 -20 0
717 20 0
-718 -69 0
718 69 0
-719 -22 0
719 22 0
-720 -21 0
720 21 0
-721 -72 0
721 72 0
-722 -75 0
722 75 0
-723 -23 0
723 23 0
-724 -78 0
724 78 0
-725 -17 0
725 17 0
-726 -81 0
726 81 0
-727 -84 0
727 84 0
-728 -25 0
728 25 0
-729 -87 0
729 87 0
-730 -90 0
730 90 0
-731 -93 0
731 93 0
-732 -5 0
732 5 0
-733 -96 0
733 96 0
-734 -31 0
734 31 0
-735 -30 0
735 30 0
-736 -1 0
736 1 0
-737 -99 0
737 99 0
-738 -102 0
738 102 0
-739 -34 0
739 34 0
-740 -105 0
740 105 0
-741 -27 0
741 27 0
-742 -108 0
742 108 0
-743 -111 0
743 111 0
-744 -35 0
744 35 0
-745 -29 0
745 29 0
-746 -114 0
746 114 0
-747 -117 0
747 117 0
-748 -38 0
748 38 0
-749 -120 0
749 120 0
-750 -123 0
750 123 0
-751 -125 0
751 125 0
-752 -40 0
752 40 0
-753 -128 0
753 128 0
-754 -41 0
754 41 0
-755 -131 0
755 131 0
-756 -134 0
756 134 0
-757 -43 0
757 43 0
-758 -26 0
758 26 0
-759 -137 0
759 137 0
-760 -140 0
760 140 0
-761 -44 0
761 44 0
-762 -143 0
762 143 0
-763 -45 0
763 45 0
-764 -146 0
764 146 0
-765 -149 0
765 149 0
-766 -46 0
766 46 0
-767 -152 0
767 152 0
-768 -36 0
768 36 0
-769 -155 0
769 155 0
-770 -47 0
770 47 0
-771 -158 0
771 158 0
-772 -42 0
772 42 0
-773 -161 0
773 161 0
-774 -164 0
774 164 0
-775 -33 0
775 33 0
-776 -48 0
776 48 0
-777 -167 0
777 167 0
-778 -170 0
778 170 0
-779 -24 0
779 24 0
-780 -173 0
780 173 0
-781 -176 0
781 176 0
-782 -179 0
782 179 0
-783 -182 0
783 182 0
-784 -185 0
784 185 0
-785 -188 0
785 188 0
-786 -191 0
786 191 0
-787 -194 0
787 194 0
-788 -197 0
788 197 0
-789 -39 0
789 39 0
-790 -200 0
790 200 0
-791 -14 0
791 14 0
-792 -203 0
792 203 0
-793 -206 0
793 206 0
-794 -209 0
794 209 0
-795 -212 0
795 212 0
-796 -215 0
796 215 0
-797 -218 0
797 218 0
-798 -37 0
798 37 0
-799 -221 0
799 221 0
-800 -224 0
800 224 0
-801 -227 0
801 227 0
-802 -230 0
802 230 0
-803 -233 0
803 233 0
-804 -236 0
804 236 0
-805 -239 0
805 239 0
-806 -242 0
806 242 0
-807 -245 0
807 245 0
-808 -248 0
808 248 0
-809 -251 0
809 251 0
-810 -254 0
810 254 0
-811 -257 0
811 257 0
-812 -260 0
812 260 0
-813 -263 0
813 263 0
-814 -266 0
814 266 0
-815 -269 0
815 269 0
-816 -32 0
816 32 0
-817 -272 0
817 272 0
-818 -275 0
818 275 0
-819 -278 0
819 278 0
-820 -281 0
820 281 0
-821 -284 0
821 284 0
-822 -49 0
822 49 0
-823 -287 0
823 287 0
-824 -12 0
824 12 0
-825 -290 0
825 290 0
-826 -9 0
826 9 0
-827 -293 0
827 293 0
-828 -296 0
828 296 0
-829 -299 0
829 299 0
-830 -302 0
830 302 0
-831 -305 0
831 305 0
-832 -308 0
832 308 0
-833 -311 0
833 311 0
-834 -314 0
834 314 0
-835 -317 0
835 317 0
-836 -320 0
836 320 0
-837 -323 0
837 323 0
-838 -326 0
838 326 0
-839 -329 0
839 329 0
-840 -332 0
840 332 0
-841 -335 0
841 335 0
-842 -338 0
842 338 0
-843 -341 0
843 341 0
-844 -344 0
844 344 0
-845 -347 0
845 347 0
-846 -50 0
846 50 0
-847 -350 0
847 350 0
-848 -353 0
848 353 0
-849 -356 0
849 356 0
-850 -359 0
850 359 0
-851 -362 0
851 362 0
-852 -365 0
852 365 0
-853 -367 0
853 367 0
-854 -370 0
854 370 0
-855 -373 0
855 373 0
-856 -376 0
856 376 0
-857 -379 0
857 379 0
-858 -382 0
858 382 0
-859 -385 0
859 385 0
-860 -388 0
860 388 0
-861 -391 0
861 391 0
-862 -394 0
862 394 0
-863 -397 0
863 397 0
-864 -400 0
864 400 0
-865 -403 0
865 403 0
-866 -406 0
866 406 0
-867 -409 0
867 409 0
-868 -412 0
868 412 0
-869 -415 0
869 415 0
-870 -418 0
870 418 0
-871 -421 0
871 421 0
-872 -424 0
872 424 0
-873 -427 0
873 427 0
-874 -430 0
874 430 0
-875 -433 0
875 433 0
-876 -436 0
876 436 0
-877 -439 0
877 439 0
-878 -442 0
878 442 0
-879 -445 0
879 445 0
-880 -448 0
880 448 0
-881 -451 0
881 451 0
-882 -454 0
882 454 0
-883 -457 0
883 457 0
-884 -460 0
884 460 0
-885 -463 0
885 463 0
-886 -466 0
886 466 0
-887 -469 0
887 469 0
-888 -472 0
888 472 0
-889 -475 0
889 475 0
-890 -478 0
890 478 0
-891 -481 0
891 481 0
-892 -484 0
892 484 0
-893 -487 0
893 487 0
-894 -490 0
894 490 0
-895 -493 0
895 493 0
-896 -496 0
896 496 0
-897 -499 0
897 499 0
-898 -502 0
898 502 0
-899 -505 0
899 505 0
-900 -508 0
900 508 0
-901 -511 0
901 511 0
-902 -514 0
902 514 0
-903 -517 0
903 517 0
-904 -520 0
904 520 0
-905 -523 0
905 523 0
-906 -525 0
906 525 0
-907 -528 0
907 528 0
-908 -531 0
908 531 0
-909 -534 0
909 534 0
-910 -537 0
910 537 0
-911 -540 0
911 540 0
-912 -542 0
912 542 0
-913 -545 0
913 545 0
-914 -548 0
914 548 0
-915 -551 0
915 551 0
-916 -554 0
916 554 0
-917 -557 0
917 557 0
-918 -560 0
918 560 0
-919 -563 0
919 563 0
-920 -566 0
920 566 0
-921 -569 0
921 569 0
-922 -572 0
922 572 0
-923 -575 0
923 575 0
-924 -578 0
924 578 0
-925 -581 0
925 581 0
-926 -584 0
926 584 0
-927 -28 0
927 28 0
-928 -587 0
928 587 0
-929 -590 0
929 590 0
-930 -593 0
930 593 0
-931 -596 0
931 596 0
-932 -599 0
932 599 0
-933 -602 0
933 602 0
-934 -605 0
934 605 0
-935 -608 0
935 608 0
-936 -610 0
936 610 0
-937 -613 0
937 613 0
-938 -616 0
938 616 0
-939 -619 0
939 619 0
-940 -622 0
940 622 0
-941 -625 0
941 625 0
-942 -628 0
942 628 0
-943 -631 0
943 631 0
-944 -634 0
944 634 0
-945 -637 0
945 637 0
-946 -640 0
946 640 0
-947 -643 0
947 643 0
-948 -646 0
948 646 0
-949 -649 0
949 649 0
-950 -652 0
950 652 0
-951 -655 0
951 655 0
-952 -658 0
952 658 0
-953 -661 0
953 661 0
-954 -664 0
954 664 0
-955 -667 0
955 667 0
-956 -670 0
956 670 0
-957 -673 0
957 673 0
-958 -676 0
958 676 0
-959 -678 0
959 678 0
-960 -681 0
960 681 0
-961 -684 0
961 684 0
-962 -687 0
962 687 0
-963 -690 0
963 690 0
-964 -693 0
964 693 0
-965 -696 0
965 696 0
697 0
